(declare-sort $$unsorted 0)
(declare-fun tptp.op ($$unsorted $$unsorted) $$unsorted)
(assert (forall ((X0 $$unsorted) (X1 $$unsorted) (X2 $$unsorted) (X3 $$unsorted)) (= (tptp.op X0 X0) (tptp.op (tptp.op (tptp.op X1 X0) X0) X2))))
(assert (not (forall ((X0 $$unsorted) (X1 $$unsorted) (X2 $$unsorted) (X3 $$unsorted)) (= (tptp.op X0 X0) (tptp.op (tptp.op (tptp.op X1 X2) X2) X3)))))
(set-info :filename Equation4082_implies_Equation4111)
(check-sat-assuming ( true ))
